40 59 137 35 184 128 30 199 15 25 189 20 179 24 185 55 123 106 159 
104 94 174 138 10 60 143 126 187 12 16 73 150 49 146 158 91 197 125 75 168 4 23 95 114 
107 200 115 102 70 162 38 13 116 53 89 47 193 62 37 180 82 7 135 163 195 21 51 52 14 
188 63 144 140 64 118 18 182 134 43 48 191 27 56 124 172 87 147 112 149 34 1 176 66 68 
178 196 42 119 136 86 177 78 22 192 113 72 19 122 31 121 194 186 85 44 170 157 83 36 
153 173 166 26 167 41 131 169 76 3 71 50 139 141 190 127 5 80 101 161 88 154 11 129 
67 28 93 98 164 45 145 175 33 61 90 92 9 69 97 181 17 117 109 152 58 105 
142 171 110 29 183 6 148 2 46 133 108 155 151 84 96 103 74 100 81 160 54 156 79 165 111 
39 198 132 99 65 8 57 77 32 130 120 

